c Reduced graph for myciel5g generated by Cyril Grelier
p edge 47 236
e 1 15
e 1 16
e 1 22
e 1 23
e 1 24
e 1 25
e 1 26
e 1 32
e 1 33
e 1 34
e 1 35
e 1 36
e 1 37
e 1 38
e 1 39
e 1 40
e 1 41
e 1 42
e 1 43
e 1 44
e 1 45
e 1 46
e 1 47
e 2 14
e 2 17
e 2 18
e 2 19
e 2 20
e 2 21
e 2 27
e 2 28
e 2 29
e 2 30
e 2 31
e 2 37
e 2 38
e 2 39
e 2 40
e 2 41
e 2 42
e 2 43
e 2 44
e 2 45
e 2 46
e 2 47
e 3 9
e 3 10
e 3 11
e 3 12
e 3 13
e 3 27
e 3 28
e 3 29
e 3 30
e 3 31
e 3 32
e 3 33
e 3 34
e 3 35
e 3 36
e 3 43
e 3 44
e 3 45
e 3 46
e 3 47
e 4 5
e 4 7
e 4 10
e 4 12
e 4 18
e 4 20
e 4 23
e 4 25
e 4 28
e 4 30
e 4 33
e 4 35
e 4 39
e 4 41
e 4 44
e 4 46
e 5 6
e 5 9
e 5 11
e 5 17
e 5 19
e 5 22
e 5 24
e 5 27
e 5 29
e 5 32
e 5 34
e 5 38
e 5 40
e 5 43
e 5 45
e 6 8
e 6 10
e 6 13
e 6 18
e 6 21
e 6 23
e 6 26
e 6 28
e 6 31
e 6 33
e 6 36
e 6 39
e 6 42
e 6 44
e 6 47
e 7 8
e 7 9
e 7 13
e 7 17
e 7 21
e 7 22
e 7 26
e 7 27
e 7 31
e 7 32
e 7 36
e 7 38
e 7 42
e 7 43
e 7 47
e 8 11
e 8 12
e 8 19
e 8 20
e 8 24
e 8 25
e 8 29
e 8 30
e 8 34
e 8 35
e 8 40
e 8 41
e 8 45
e 8 46
e 9 14
e 9 16
e 9 18
e 9 20
e 9 23
e 9 25
e 9 37
e 9 39
e 9 41
e 10 14
e 10 16
e 10 17
e 10 19
e 10 22
e 10 24
e 10 37
e 10 38
e 10 40
e 11 14
e 11 16
e 11 18
e 11 21
e 11 23
e 11 26
e 11 37
e 11 39
e 11 42
e 12 14
e 12 16
e 12 17
e 12 21
e 12 22
e 12 26
e 12 37
e 12 38
e 12 42
e 13 14
e 13 16
e 13 19
e 13 20
e 13 24
e 13 25
e 13 37
e 13 40
e 13 41
e 14 15
e 14 32
e 14 33
e 14 34
e 14 35
e 14 36
e 15 17
e 15 18
e 15 19
e 15 20
e 15 21
e 15 27
e 15 28
e 15 29
e 15 30
e 15 31
e 16 27
e 16 28
e 16 29
e 16 30
e 16 31
e 17 23
e 17 25
e 17 33
e 17 35
e 18 22
e 18 24
e 18 32
e 18 34
e 19 23
e 19 26
e 19 33
e 19 36
e 20 22
e 20 26
e 20 32
e 20 36
e 21 24
e 21 25
e 21 34
e 21 35
e 22 28
e 22 30
e 23 27
e 23 29
e 24 28
e 24 31
e 25 27
e 25 31
e 26 29
e 26 30
